array [1..4] of int: X_INTRODUCED_10_ = [1,-3,-2,1];
var 0..10: X_INTRODUCED_0_;
var 0..10: X_INTRODUCED_1_;
var 0..10: X_INTRODUCED_2_;
var -10..50: x:: output_var:: is_defined_var;
array [1..3] of var int: ys:: output_array([1..3]) = [X_INTRODUCED_0_,X_INTRODUCED_1_,X_INTRODUCED_2_];
constraint int_lin_eq(X_INTRODUCED_10_,[x,X_INTRODUCED_0_,X_INTRODUCED_1_,X_INTRODUCED_2_],0):: defines_var(x);
solve  maximize x;
